num_offers = 30;
num_halls = 10;
start=[35,56,27,43,76,39,41,25,35,30,12,18,31,27,45,2,24,46,24,64,68,3,35,6,5,80,5,1,48,36];
end=[64,92,49,50,98,51,95,37,95,83,19,51,55,37,98,54,88,82,72,99,79,83,63,45,31,97,89,78,82,64];
price=[2633,2737,241,352,2262,540,1655,347,3172,666,604,1354,1640,772,4091,2307,4071,3387,1559,3101,945,7760,1365,2806,1530,281,7251,3068,3183,1400];
requirement=[326,584,526,633,801,339,897,713,288,289,381,511,352,980,511,323,950,665,657,248,737,782,926,317,410,277,606,296,620,991];
capacity=[797,392,503,299,368,650,796,237,531,918];
